Au   # an extra Au atom in a interstitial site
1.0
4.0782 0.000000 0.000000
0.000000 4.0782 0.000000
0.000000 0.000000 4.0782
Au
5
direct
0.000000 0.000000 0.000000 Au
0.500000 0.500000 0.000000 Au
0.000000 0.500000 0.000000 Au
0.000000 0.500000 0.500000 Au
0.500000 0.000000 0.500000 Au
