Fe
1.0
2.867 0.000000 0.000000
0.000000 2.867 0.000000
0.000000 0.000000 2.867
Fe
2
direct
0.000000 0.000000 0.000000 Fe
0.500000 0.500000 0.500000 Fe
