Fe   # an extra Fe atom in a interstitial site
1.0
        2.8670001030         0.0000000000         0.0000000000
        0.0000000000         2.8670001030         0.0000000000
        0.0000000000         0.0000000000         2.8670001030
   Fe
    3
Direct
     0.000000000         0.000000000         0.000000000   Fe
     0.500000000         0.500000000         0.500000000   Fe
     0.000000000         0.000000000         0.500000000   Fe
